c This is an instance of the exact track of PACE 2020 Challenge, see https://pacechallenge.org/2020/ 
c TYPE: generated 
c ORIGIN: Python networkx package 
c DESCRIPTION: A cycle graph on p nodes with chords joining each vertex x to its inverse modulo p. This graph is a (mildly explicit) 3-regular expander. Generated using chordal_cycle_graph function from Python’s networkx package 
p tdp 71 103
1 2
1 3
2 53
3 4
4 5
4 6
5 7
5 8
6 52
6 54
7 9
7 10
8 35
8 38
9 11
9 12
10 27
10 26
11 13
11 14
12 64
12 66
13 15
13 16
14 19
14 21
15 17
16 68
16 70
17 18
18 19
18 20
19 21
20 71
20 69
21 22
22 23
22 24
23 25
23 26
24 69
24 65
25 27
25 28
26 30
27 29
28 57
28 42
29 50
29 60
30 31
30 32
31 33
31 34
32 49
32 46
33 35
33 36
34 58
34 50
35 37
36 42
36 58
37 46
37 52
38 39
38 40
39 41
39 42
40 63
40 51
41 43
41 44
43 45
43 46
44 48
44 59
45 47
45 48
47 49
47 50
48 56
49 51
51 64
52 53
53 61
54 55
54 56
55 57
55 58
56 60
57 59
59 62
60 61
61 65
62 63
62 64
63 65
66 67
66 68
67 68
67 69
70 71
